
Gurobi 11.0.3 (linux64) logging started Thu Apr 16 15:21:58 2026

Set parameter LogFile to value "tree/results/fish/fish_depth-2_run-3/Full MIP/LogFile_FullModel.txt"
Gurobi Optimizer version 11.0.3 build v11.0.3rc0 (linux64 - "CentOS Linux 7 (Core)")

CPU model: Intel(R) Xeon(R) Platinum 8260 CPU @ 2.40GHz, instruction set [SSE2|AVX|AVX2|AVX512]
Thread count: 96 physical cores, 192 logical processors, using up to 32 threads

Optimize a model with 85760 rows, 73510 columns and 417804 nonzeros
Model fingerprint: 0x7667607e
Model has 12240 general constraints
Variable types: 36754 continuous, 36756 integer (36756 binary)
Coefficient statistics:
  Matrix range     [3e-04, 1e+04]
  Objective range  [3e-04, 1e+04]
  Bounds range     [1e+00, 3e+03]
  RHS range        [1e-04, 3e+03]

User MIP start produced solution with objective -47599.5 (0.24s)
Loaded user MIP start with objective -47599.5

Presolve added 33419 rows and 35072 columns
Presolve time: 3.07s
Presolved: 119179 rows, 108582 columns, 509403 nonzeros
Presolved model has 13888 SOS constraint(s)
Variable types: 36754 continuous, 71828 integer (71828 binary)
Root relaxation presolved: 106939 rows, 96342 columns, 484923 nonzeros

Deterministic concurrent LP optimizer: primal simplex, dual simplex, and barrier
Showing barrier log only...

Root barrier log...

Ordering time: 0.02s

Barrier statistics:
 Dense cols : 12
 AA' NZ     : 4.214e+05
 Factor NZ  : 1.206e+06 (roughly 100 MB of memory)
 Factor Ops : 1.400e+07 (less than 1 second per iteration)
 Threads    : 30

                  Objective                Residual
Iter       Primal          Dual         Primal    Dual     Compl     Time
   0  -8.10570681e+07  4.60853321e+11  9.00e+03 5.61e+03  7.66e+07     5s
   1  -3.89866728e+07  4.84017123e+11  3.76e+03 2.52e-06  3.10e+07     5s
   2  -5.96374478e+06  3.91344422e+11  4.92e+02 6.47e-07  4.88e+06     5s
   3  -5.96374382e+05  1.62990461e+11  5.52e+01 1.66e-06  8.31e+05     5s
   4  -5.96373452e+04  2.65622972e+10  7.84e+00 1.42e-07  1.09e+05     5s
   5  -9.39372289e+03  4.81756259e+09  7.77e-01 4.04e-08  1.81e+04     5s
   6  -1.47538253e+03  5.26648812e+08  7.70e-02 4.07e-09  1.92e+03     5s
   7  -1.47499337e+02  5.26732412e+07  7.63e-03 8.64e-10  1.92e+02     6s
   8  -1.46652213e+01  5.27053931e+06  7.63e-04 1.48e-10  1.92e+01     6s
   9  -1.38164668e+00  5.30234265e+05  7.56e-05 2.38e-11  1.93e+00     6s
  10  -5.21595702e-02  5.61968333e+04  7.56e-06 1.46e-11  2.04e-01     6s
  11   9.78571286e-02  8.28192635e+03  7.49e-07 3.42e-13  3.01e-02     6s
  12   3.47206376e-01  1.43004718e+03  7.43e-08 4.97e-14  5.20e-03     6s
  13   5.08639088e-01  2.35452509e+02  1.63e-08 7.25e-15  8.54e-04     6s
  14   5.61038817e-01  4.16083751e+01  4.60e-09 1.46e-11  1.49e-04     7s
  15   5.82656050e-01  6.70829831e+00  8.25e-10 1.46e-11  2.23e-05     7s
  16   6.26595492e-01  2.33128479e+00  4.18e-10 4.36e-17  6.20e-06     7s
  17   7.22428731e-01  1.24810629e+00  2.04e-10 1.46e-11  1.91e-06     7s
  18   8.30784557e-01  9.83511328e-01  2.61e-11 1.46e-11  5.55e-07     7s
  19   8.44042741e-01  8.98222913e-01  5.89e-11 3.47e-18  1.97e-07     7s
  20   8.46513932e-01  8.69460079e-01  4.66e-11 3.94e-18  8.34e-08     7s
  21   8.47178144e-01  8.50956877e-01  6.63e-11 3.47e-18  1.37e-08     7s
  22   8.47345996e-01  8.47734579e-01  2.33e-10 3.47e-18  1.41e-09     8s
  23   8.47363003e-01  8.47402743e-01  3.18e-11 1.46e-11  1.44e-10     8s
  24   8.47365046e-01  8.47369022e-01  3.39e-12 1.46e-11  1.45e-11     8s
  25   8.47365250e-01  8.47365648e-01  5.81e-12 3.47e-18  1.45e-12     8s
  26   8.47365270e-01  8.47365310e-01  9.44e-12 6.49e-18  1.45e-13     9s
  27   8.47365272e-01  8.47365276e-01  9.38e-13 3.68e-18  1.45e-14     9s

Barrier solved model in 27 iterations and 8.80 seconds (5.68 work units)
Optimal objective 8.47365272e-01


Root crossover log...

    3102 DPushes remaining with DInf 0.0000000e+00                 9s
    1215 DPushes remaining with DInf 0.0000000e+00                10s
       0 DPushes remaining with DInf 0.0000000e+00                11s

   40559 PPushes remaining with PInf 2.9088397e-04                11s
       0 PPushes remaining with PInf 0.0000000e+00                15s

  Push phase complete: Pinf 0.0000000e+00, Dinf 3.1717594e-20     15s


Root simplex log...

Iteration    Objective       Primal Inf.    Dual Inf.      Time
   43563    8.4736527e-01   0.000000e+00   1.735097e-01     15s
   43664    8.4736527e-01   0.000000e+00   2.993557e-03     15s
   44977    8.4736528e-01   0.000000e+00   1.292412e-02     20s
   46189    8.4736528e-01   0.000000e+00   1.053838e-02     25s
   47502    8.4736528e-01   0.000000e+00   3.238592e-03     30s
   48613    8.4736528e-01   0.000000e+00   1.083064e-03     35s
   49825    8.4736528e-01   0.000000e+00   1.920099e-03     40s
   51239    8.4736528e-01   0.000000e+00   1.055448e-03     45s
   52299    8.4736527e-01   0.000000e+00   0.000000e+00     50s
Concurrent spin time: 31.60s (can be avoided by choosing Method=3)

Solved with barrier
   52299    8.4736527e-01   0.000000e+00   0.000000e+00     81s

Root relaxation: objective 8.473653e-01, 52299 iterations, 77.39 seconds (73.05 work units)
Total elapsed time = 85.70s (DegenMoves)

    Nodes    |    Current Node    |     Objective Bounds      |     Work
 Expl Unexpl |  Obj  Depth IntInf | Incumbent    BestBd   Gap | It/Node Time

     0     0    0.84737    0 19220 -47599.538    0.84737   100%     -   86s
     0     2    0.84737    0 19220 -47599.538    0.84737   100%     - 1619s
     1     4    0.84420    1 19157 -47599.538    0.84420   100% 12934 1790s
     3     8    0.83984    2 19075 -47599.538    0.83984   100% 22202 2111s
     7    16    0.83467    3 18972 -47599.538    0.83467   100% 29157 2345s
    15    32    0.82837    4 18840 -47599.538    0.82837   100% 28460 2872s
    31    64    0.82036    5 18657 -47599.538    0.82036   100% 28798 3601s

Explored 63 nodes (1285692 simplex iterations) in 3601.83 seconds (4594.52 work units)
Thread count was 32 (of 192 available processors)

Solution count 1: -47599.5 

Time limit reached
Best objective -4.759953790850e+04, best bound 8.203627553660e-01, gap 100.0017%

User-callback calls 892965, time in user-callback 4.97 sec
